DATASET = "thpack6";
INSTANCE = "036";

WIDTH = 233;
HEIGHT = 220;
LENGTH = 587;

NO_OF_SHAPES = 15;
size = [|
  41,39,26 |
  110,40,34 |
  94,77,52 |
  119,96,71 |
  67,63,47 |
  61,43,31 |
  72,53,35 |
  64,38,38 |
  110,71,45 |
  73,71,52 |
  95,92,55 |
  86,74,31 |
  99,62,52 |
  81,44,31 |
  113,94,70 |
|];

verticality = [|
  1,1,1 |
  0,1,1 |
  1,1,1 |
  1,1,1 |
  1,1,1 |
  1,1,1 |
  0,1,1 |
  1,1,1 |
  0,1,1 |
  1,1,1 |
  1,1,1 |
  0,0,1 |
  1,1,1 |
  0,1,1 |
  1,1,1 |
|];

box_count = [
  14,
  8,
  5,
  7,
  7,
  5,
  13,
  9,
  9,
  7,
  4,
  3,
  6,
  8,
  8,
];
